11
Energy = -2361.222644973
Bi    0.0000000    0.0000000    2.5480815 
Bi    0.0000000   -0.0000000   -2.5480815 
Bi    1.9945130    3.4545979    0.0000000 
Bi    1.9945130   -3.4545979    0.0000000 
Bi   -3.9890261    0.0000000    0.0000000 
Bi    2.5931931    0.8365781    1.2446838 
Bi   -0.5720987    2.6640601   -1.2446838 
Bi   -0.5720987   -2.6640601    1.2446838 
Bi    2.5931931   -0.8365781   -1.2446838 
Bi   -2.0210944    1.8274821    1.2446838 
Bi   -2.0210944   -1.8274821   -1.2446838 
